c description: Random 3-CNF over 22 variables and 94 clauses
c generator: CNFgen (0.9.2)
c copyright: (C) 2012-2022 Massimo Lauria <massimo.lauria@uniroma1.it>
c url: https://massimolauria.net/cnfgen
c command line: cnfgen --output CNF_4.28/22_bit_94_336.cnf randkcnf 3 22 94
c
p cnf 22 94
-1 10 -17 0
9 18 -19 0
-10 -18 19 0
1 -9 -19 0
2 15 17 0
1 -12 15 0
-6 -14 15 0
-2 12 15 0
5 15 17 0
15 -20 -22 0
-6 12 19 0
-8 -17 -20 0
-7 -12 -19 0
-4 -17 20 0
-1 -2 18 0
2 -4 -18 0
6 -15 17 0
-2 14 21 0
11 -14 19 0
15 18 19 0
8 12 20 0
-2 -19 22 0
5 21 -22 0
-6 -11 -12 0
4 12 -21 0
-2 -13 -15 0
-9 -13 21 0
1 -11 -22 0
-13 15 21 0
-1 -4 -19 0
-11 -13 19 0
2 16 17 0
8 -21 -22 0
-5 -8 -22 0
1 -12 -17 0
-7 10 15 0
-9 16 18 0
8 17 -22 0
-5 13 16 0
-7 14 20 0
-2 11 21 0
-4 -9 16 0
-13 -15 19 0
-2 -12 -15 0
-12 15 -21 0
-10 14 21 0
-7 9 -15 0
-4 6 15 0
10 11 22 0
-3 11 13 0
5 -16 -19 0
12 14 22 0
4 8 -10 0
-5 12 17 0
-6 -8 15 0
-5 18 21 0
-3 8 -20 0
-9 13 15 0
-11 -21 -22 0
9 12 14 0
8 16 22 0
-8 9 -19 0
1 7 -10 0
4 16 -22 0
4 -7 -22 0
-5 6 -8 0
-2 11 -12 0
-6 16 -19 0
7 11 16 0
-10 -12 -19 0
8 -15 -22 0
12 17 -20 0
-4 -16 -22 0
-7 -19 -21 0
-7 8 21 0
6 10 -19 0
-7 8 14 0
-2 -4 19 0
-6 -8 19 0
-3 4 18 0
2 -5 14 0
-8 9 14 0
-6 7 13 0
-17 19 -22 0
-13 16 17 0
-9 16 -17 0
1 6 13 0
-2 -3 -17 0
7 14 16 0
-1 -11 14 0
5 6 13 0
-1 -10 18 0
-2 -11 -13 0
-4 -5 -20 0
